;; Category : Email validation
;; Benchmark: email_no_plus vs email_alpha_start
;; R1: No plus addressing: [a-zA-Z0-9._-]+@domain.tld
;; R2: Local must start with letter
;; Status   : sat
;;
;; Equivalence check: unsat ⟺ L(R1) = L(R2)

(set-info :smt-lib-version 2.6)
(set-info :category "email")
(set-info :status sat)
(set-logic QF_S)

(assert
  (not
    (=
      (re.inter (re.++ (re.+ (re.union (re.union (re.range "a" "z") (re.range "A" "Z") (re.range "0" "9")) (str.to_re ".") (str.to_re "_") (str.to_re "-"))) (str.to_re "@") (re.+ (re.union (re.union (re.range "a" "z") (re.range "A" "Z") (re.range "0" "9")) (str.to_re ".") (str.to_re "-"))) (str.to_re ".") ((_ re.loop 2 6) (re.union (re.range "a" "z") (re.range "A" "Z")))) (re.comp (re.++ (re.union (re.range "a" "z") (re.range "A" "Z")) (re.* (re.union (re.union (re.range "a" "z") (re.range "A" "Z") (re.range "0" "9")) (str.to_re ".") (str.to_re "_") (str.to_re "%") (str.to_re "-") (str.to_re "+"))) (str.to_re "@") (re.+ (re.union (re.union (re.range "a" "z") (re.range "A" "Z") (re.range "0" "9")) (str.to_re ".") (str.to_re "-"))) (str.to_re ".") ((_ re.loop 2 6) (re.union (re.range "a" "z") (re.range "A" "Z"))))))
      (re.inter (re.comp (re.++ (re.+ (re.union (re.union (re.range "a" "z") (re.range "A" "Z") (re.range "0" "9")) (str.to_re ".") (str.to_re "_") (str.to_re "-"))) (str.to_re "@") (re.+ (re.union (re.union (re.range "a" "z") (re.range "A" "Z") (re.range "0" "9")) (str.to_re ".") (str.to_re "-"))) (str.to_re ".") ((_ re.loop 2 6) (re.union (re.range "a" "z") (re.range "A" "Z"))))) (re.++ (re.union (re.range "a" "z") (re.range "A" "Z")) (re.* (re.union (re.union (re.range "a" "z") (re.range "A" "Z") (re.range "0" "9")) (str.to_re ".") (str.to_re "_") (str.to_re "%") (str.to_re "-") (str.to_re "+"))) (str.to_re "@") (re.+ (re.union (re.union (re.range "a" "z") (re.range "A" "Z") (re.range "0" "9")) (str.to_re ".") (str.to_re "-"))) (str.to_re ".") ((_ re.loop 2 6) (re.union (re.range "a" "z") (re.range "A" "Z"))))))))

(check-sat)
(exit)
